loop__main__1407:
(set-info :source |printed by MathSAT|)
(declare-fun |main::tmp_var_1_uint| () (_ BitVec 32))
(declare-fun |main::local_2c| () (_ BitVec 32))
(declare-fun |main::q| () (_ BitVec 32))
(declare-fun |main::A| () (_ BitVec 32))
(declare-fun |main::p| () (_ BitVec 32))
(declare-fun |main::tmp_var_2_uint| () (_ BitVec 32))
(declare-fun counter () (_ BitVec 32))
(assert (let ((.def_538 (bvult |main::tmp_var_2_uint| |main::local_2c|)))(let ((.def_650 (not .def_538)))(let ((.def_533 (= |main::tmp_var_1_uint| (_ bv2 32))))(let ((.def_933 (or .def_533 .def_650)))(let ((.def_535 (bvshl |main::local_2c| (_ bv1 32))))(let ((.def_536 (= |main::q| .def_535)))(let ((.def_931 (and .def_536 .def_650)))(let ((.def_597 (not .def_533)))(let ((.def_932 (or .def_597 .def_931)))(let ((.def_934 (and .def_932 .def_933)))(let ((.def_531 (= counter (_ bv0 32))))(let ((.def_936 (or .def_531 .def_934)))(let ((.def_540 (= counter (_ bv1 32))))(let ((.def_594 (not .def_540)))(let ((.def_716 (and .def_594 .def_650)))(let ((.def_822 (or .def_533 .def_716)))(let ((.def_820 (and .def_536 .def_716)))(let ((.def_821 (or .def_597 .def_820)))(let ((.def_823 (and .def_821 .def_822)))(let ((.def_654 (not .def_531)))(let ((.def_935 (or .def_654 .def_823)))(let ((.def_937 (and .def_935 .def_936)))(let ((.def_528 (= |main::local_2c| |main::q|)))(let ((.def_656 (not .def_528)))(let ((.def_938 (and .def_656 .def_937)))(let ((.def_307 (= |main::tmp_var_1_uint| (_ bv1 32))))(let ((.def_1264 (or .def_307 .def_938)))(let ((.def_595 (not .def_536)))(let ((.def_596 (and .def_594 .def_595)))(let ((.def_598 (and .def_596 .def_597)))(let ((.def_599 (and .def_531 .def_598)))(let ((.def_600 (and .def_528 .def_599)))(let ((.def_334 (not .def_307)))(let ((.def_1263 (or .def_334 .def_600)))(let ((.def_1265 (and .def_1263 .def_1264)))(let ((.def_180 (= |main::p| |main::tmp_var_2_uint|)))(let ((.def_1266 (and .def_180 .def_1265)))(let ((.def_176 (= |main::A| (_ bv0 32))))(let ((.def_1267 (and .def_176 .def_1266)))(let ((.def_95 (bvmul |main::tmp_var_1_uint| |main::local_2c|)))(let ((.def_97 (= .def_95 |main::q|)))(let ((.def_1268 (and .def_97 .def_1267))).def_1268)))))))))))))))))))))))))))))))))))))))))))
loop__main__1434:
(set-info :source |printed by MathSAT|)
(declare-fun |main::tmp_var_1_uint| () (_ BitVec 32))
(declare-fun |main::local_2c| () (_ BitVec 32))
(declare-fun |main::q| () (_ BitVec 32))
(declare-fun |main::A| () (_ BitVec 32))
(declare-fun |main::p| () (_ BitVec 32))
(declare-fun |main::tmp_var_2_uint| () (_ BitVec 32))
(assert (let ((.def_535 (bvshl |main::local_2c| (_ bv1 32))))(let ((.def_544 (bvlshr .def_535 (_ bv1 32))))(let ((.def_549 (bvult |main::tmp_var_2_uint| .def_544)))(let ((.def_1148 (not .def_549)))(let ((.def_553 (= |main::A| (_ bv1 32))))(let ((.def_1145 (not .def_553)))(let ((.def_555 (bvmul |main::local_2c| |main::A|)))(let ((.def_556 (bvadd |main::p| .def_555)))(let ((.def_557 (= |main::tmp_var_2_uint| .def_556)))(let ((.def_1146 (and .def_557 .def_1145)))(let ((.def_551 (bvult |main::tmp_var_2_uint| .def_535)))(let ((.def_1147 (and .def_551 .def_1146)))(let ((.def_1215 (and .def_1147 .def_1148)))(let ((.def_545 (bvneg .def_544)))(let ((.def_546 (bvadd |main::tmp_var_2_uint| .def_545)))(let ((.def_547 (= |main::p| .def_546)))(let ((.def_1155 (not .def_547)))(let ((.def_1216 (and .def_1155 .def_1215)))(let ((.def_542 (bvult |main::tmp_var_2_uint| |main::q|)))(let ((.def_1217 (and .def_542 .def_1216)))(let ((.def_538 (bvult |main::tmp_var_2_uint| |main::local_2c|)))(let ((.def_650 (not .def_538)))(let ((.def_1218 (and .def_650 .def_1217)))(let ((.def_536 (= |main::q| .def_535)))(let ((.def_1219 (and .def_536 .def_1218)))(let ((.def_533 (= |main::tmp_var_1_uint| (_ bv2 32))))(let ((.def_1220 (and .def_533 .def_1219)))(let ((.def_307 (= |main::tmp_var_1_uint| (_ bv1 32))))(let ((.def_1270 (or .def_307 .def_1220)))(let ((.def_1150 (or .def_549 .def_1146)))(let ((.def_1149 (or .def_1147 .def_1148)))(let ((.def_1151 (and .def_1149 .def_1150)))(let ((.def_1157 (or .def_547 .def_1151)))(let ((.def_1152 (not .def_551)))(let ((.def_1153 (and .def_1146 .def_1152)))(let ((.def_1154 (and .def_1148 .def_1153)))(let ((.def_1156 (or .def_1154 .def_1155)))(let ((.def_1158 (and .def_1156 .def_1157)))(let ((.def_1159 (and .def_542 .def_1158)))(let ((.def_1160 (and .def_538 .def_1159)))(let ((.def_595 (not .def_536)))(let ((.def_1161 (and .def_595 .def_1160)))(let ((.def_597 (not .def_533)))(let ((.def_1162 (and .def_597 .def_1161)))(let ((.def_334 (not .def_307)))(let ((.def_1269 (or .def_334 .def_1162)))(let ((.def_1271 (and .def_1269 .def_1270)))(let ((.def_180 (= |main::p| |main::tmp_var_2_uint|)))(let ((.def_1272 (and .def_180 .def_1271)))(let ((.def_176 (= |main::A| (_ bv0 32))))(let ((.def_1273 (and .def_176 .def_1272)))(let ((.def_95 (bvmul |main::tmp_var_1_uint| |main::local_2c|)))(let ((.def_97 (= .def_95 |main::q|)))(let ((.def_1274 (and .def_97 .def_1273))).def_1274)))))))))))))))))))))))))))))))))))))))))))))))))))))))
